minimize
obj: 67 x_1__out + 4 x_2__out + 97 x_3__out + 97 x_4__out + 28 x_5__out + 64 x_6__out + 52 x_7__out + 74 x_8__out + 30 x_9__out + 27 x_10__out + 1000 p_1_ + 1000 p_2_ + 1 x23
subject to
knapsack_1_: 100 x_1__in + 54 x_2__in + 95 x_3__in + 17 x_4__in + 16 x_5__in + 15 x_6__in + 77 x_7__in + 32 x_8__in + 19 x_9__in + 77 x_10__in + 29 x_1__out + 20 x_2__out + 68 x_3__out + 100 x_4__out + 16 x_5__out + 17 x_6__out + 40 x_7__out + 33 x_8__out + 3 x_9__out + 38 x_10__out + 1 p_1_ >= 649.5
knapsack_2_: 68 x_1__in + 7 x_2__in + 60 x_3__in + 4 x_4__in + 34 x_5__in + 9 x_6__in + 94 x_7__in + 79 x_8__in + 49 x_9__in + 22 x_10__in + 65 x_1__out + 46 x_2__out + 60 x_3__out + 60 x_4__out + 68 x_5__out + 79 x_6__out + 66 x_7__out + 82 x_8__out + 6 x_9__out + 68 x_10__out + 1 p_2_ >= 769.5
Bounds
x_1__in = 0
x_2__in = 1
x_3__in = 1
x_4__in = 1
x_5__in = 1
x_6__in = 1
x_7__in = 0
x_8__in = 1
x_9__in = 1
x_10__in = 1
x_1__out >= 0
x_2__out >= 0
x_3__out >= 0
x_4__out >= 0
x_5__out >= 0
x_6__out >= 0
x_7__out >= 0
x_8__out >= 0
x_9__out >= 0
x_10__out >= 0
p_1_ >= 1
p_2_ >= 1
x23 = 0
Binary
x_1__out
x_2__out
x_3__out
x_4__out
x_5__out
x_6__out
x_7__out
x_8__out
x_9__out
x_10__out
End
